p cnf 1424
-23 -443
-24 -446
-25 -449
-26 -452
-27 -455
-28 -458
-29 -461
-30 -464
-31 -467
-32 -470
-33 -473
-34 -476
-35 -479
-36 -482
-37 -485
-38 -488
-39 -491
-40 -494
-41 -497
-42 -500
-43 -503
-44 -506
-45 507
-46 508
-47 509
-48 510
-49 511
-50 512
-51 513
-52 514
-53 515
-54 -24
-54 -25
24 25 54
-55 -26
-55 -27
26 27 55
-56 -28
-56 -29
28 29 56
-57 -30
-57 -31
30 31 57
-58 -32
-58 -33
32 33 58
-59 -34
-59 -35
34 35 59
-60 -36
-60 -37
36 37 60
-61 -38
-61 -39
38 39 61
-62 -40
-62 -41
40 41 62
-63 -42
-63 -43
42 43 63
-64 -44
-64 -45
44 45 64
-65 -46
-65 -47
46 47 65
-66 -48
-66 -49
48 49 66
-67 -50
-67 -51
50 51 67
-68 -52
-68 -53
52 53 68
-69 54
-69 55
-54 -55 69
-70 56
-70 57
-56 -57 70
-71 58
-71 59
-58 -59 71
-72 60
-72 61
-60 -61 72
-73 62
-73 63
-62 -63 73
-74 64
-74 65
-64 -65 74
-75 66
-75 67
-66 -67 75
-76 69
-76 70
-69 -70 76
-77 71
-77 72
-71 -72 77
-78 73
-78 74
-73 -74 78
-79 68
-79 75
-68 -75 79
-80 76
-80 77
-76 -77 80
-81 78
-81 79
-78 -79 81
-82 80
-82 81
-80 -81 82
-83 -23
-83 24
23 -24 83
-84 23
-84 -24
-23 24 84
-85 -83
-85 -84
83 84 85
-86 23
-86 24
-23 -24 86
-87 -23
-87 -85
23 85 87
-88 23
-88 85
-23 -85 88
-89 -87
-89 -88
87 88 89
-90 23
-90 -85
-23 85 90
-91 -86
-91 -90
86 90 91
-92 -24
-92 25
24 -25 92
-93 24
-93 -25
-24 25 93
-94 -92
-94 -93
92 93 94
-95 24
-95 25
-24 -25 95
-96 91
-96 -94
-91 94 96
-97 -91
-97 94
91 -94 97
-98 -96
-98 -97
96 97 98
-99 -91
-99 -94
91 94 99
-100 -95
-100 -99
95 99 100
-101 -25
-101 26
25 -26 101
-102 25
-102 -26
-25 26 102
-103 -101
-103 -102
101 102 103
-104 25
-104 26
-25 -26 104
-105 100
-105 -103
-100 103 105
-106 -100
-106 103
100 -103 106
-107 -105
-107 -106
105 106 107
-108 -100
-108 -103
100 103 108
-109 -104
-109 -108
104 108 109
-110 -26
-110 27
26 -27 110
-111 26
-111 -27
-26 27 111
-112 -110
-112 -111
110 111 112
-113 26
-113 27
-26 -27 113
-114 109
-114 -112
-109 112 114
-115 -109
-115 112
109 -112 115
-116 -114
-116 -115
114 115 116
-117 -109
-117 -112
109 112 117
-118 -113
-118 -117
113 117 118
-119 -27
-119 28
27 -28 119
-120 27
-120 -28
-27 28 120
-121 -119
-121 -120
119 120 121
-122 27
-122 28
-27 -28 122
-123 118
-123 -121
-118 121 123
-124 -118
-124 121
118 -121 124
-125 -123
-125 -124
123 124 125
-126 -118
-126 -121
118 121 126
-127 -122
-127 -126
122 126 127
-128 -28
-128 29
28 -29 128
-129 28
-129 -29
-28 29 129
-130 -128
-130 -129
128 129 130
-131 28
-131 29
-28 -29 131
-132 127
-132 -130
-127 130 132
-133 -127
-133 130
127 -130 133
-134 -132
-134 -133
132 133 134
-135 -127
-135 -130
127 130 135
-136 -131
-136 -135
131 135 136
-137 -29
-137 30
29 -30 137
-138 29
-138 -30
-29 30 138
-139 -137
-139 -138
137 138 139
-140 29
-140 30
-29 -30 140
-141 136
-141 -139
-136 139 141
-142 -136
-142 139
136 -139 142
-143 -141
-143 -142
141 142 143
-144 -136
-144 -139
136 139 144
-145 -140
-145 -144
140 144 145
-146 -30
-146 31
30 -31 146
-147 30
-147 -31
-30 31 147
-148 -146
-148 -147
146 147 148
-149 30
-149 31
-30 -31 149
-150 145
-150 -148
-145 148 150
-151 -145
-151 148
145 -148 151
-152 -150
-152 -151
150 151 152
-153 -145
-153 -148
145 148 153
-154 -149
-154 -153
149 153 154
-155 -31
-155 32
31 -32 155
-156 31
-156 -32
-31 32 156
-157 -155
-157 -156
155 156 157
-158 31
-158 32
-31 -32 158
-159 154
-159 -157
-154 157 159
-160 -154
-160 157
154 -157 160
-161 -159
-161 -160
159 160 161
-162 -154
-162 -157
154 157 162
-163 -158
-163 -162
158 162 163
-164 -32
-164 33
32 -33 164
-165 32
-165 -33
-32 33 165
-166 -164
-166 -165
164 165 166
-167 32
-167 33
-32 -33 167
-168 163
-168 -166
-163 166 168
-169 -163
-169 166
163 -166 169
-170 -168
-170 -169
168 169 170
-171 -163
-171 -166
163 166 171
-172 -167
-172 -171
167 171 172
-173 -33
-173 34
33 -34 173
-174 33
-174 -34
-33 34 174
-175 -173
-175 -174
173 174 175
-176 33
-176 34
-33 -34 176
-177 172
-177 -175
-172 175 177
-178 -172
-178 175
172 -175 178
-179 -177
-179 -178
177 178 179
-180 -172
-180 -175
172 175 180
-181 -176
-181 -180
176 180 181
-182 -34
-182 35
34 -35 182
-183 34
-183 -35
-34 35 183
-184 -182
-184 -183
182 183 184
-185 34
-185 35
-34 -35 185
-186 181
-186 -184
-181 184 186
-187 -181
-187 184
181 -184 187
-188 -186
-188 -187
186 187 188
-189 -181
-189 -184
181 184 189
-190 -185
-190 -189
185 189 190
-191 -35
-191 36
35 -36 191
-192 35
-192 -36
-35 36 192
-193 -191
-193 -192
191 192 193
-194 35
-194 36
-35 -36 194
-195 190
-195 -193
-190 193 195
-196 -190
-196 193
190 -193 196
-197 -195
-197 -196
195 196 197
-198 -190
-198 -193
190 193 198
-199 -194
-199 -198
194 198 199
-200 -36
-200 37
36 -37 200
-201 36
-201 -37
-36 37 201
-202 -200
-202 -201
200 201 202
-203 36
-203 37
-36 -37 203
-204 199
-204 -202
-199 202 204
-205 -199
-205 202
199 -202 205
-206 -204
-206 -205
204 205 206
-207 -199
-207 -202
199 202 207
-208 -203
-208 -207
203 207 208
-209 -37
-209 38
37 -38 209
-210 37
-210 -38
-37 38 210
-211 -209
-211 -210
209 210 211
-212 37
-212 38
-37 -38 212
-213 208
-213 -211
-208 211 213
-214 -208
-214 211
208 -211 214
-215 -213
-215 -214
213 214 215
-216 -208
-216 -211
208 211 216
-217 -212
-217 -216
212 216 217
-218 -38
-218 39
38 -39 218
-219 38
-219 -39
-38 39 219
-220 -218
-220 -219
218 219 220
-221 38
-221 39
-38 -39 221
-222 217
-222 -220
-217 220 222
-223 -217
-223 220
217 -220 223
-224 -222
-224 -223
222 223 224
-225 -217
-225 -220
217 220 225
-226 -221
-226 -225
221 225 226
-227 -39
-227 40
39 -40 227
-228 39
-228 -40
-39 40 228
-229 -227
-229 -228
227 228 229
-230 39
-230 40
-39 -40 230
-231 226
-231 -229
-226 229 231
-232 -226
-232 229
226 -229 232
-233 -231
-233 -232
231 232 233
-234 -226
-234 -229
226 229 234
-235 -230
-235 -234
230 234 235
-236 -40
-236 41
40 -41 236
-237 40
-237 -41
-40 41 237
-238 -236
-238 -237
236 237 238
-239 40
-239 41
-40 -41 239
-240 235
-240 -238
-235 238 240
-241 -235
-241 238
235 -238 241
-242 -240
-242 -241
240 241 242
-243 -235
-243 -238
235 238 243
-244 -239
-244 -243
239 243 244
-245 -41
-245 42
41 -42 245
-246 41
-246 -42
-41 42 246
-247 -245
-247 -246
245 246 247
-248 41
-248 42
-41 -42 248
-249 244
-249 -247
-244 247 249
-250 -244
-250 247
244 -247 250
-251 -249
-251 -250
249 250 251
-252 -244
-252 -247
244 247 252
-253 -248
-253 -252
248 252 253
-254 -42
-254 43
42 -43 254
-255 42
-255 -43
-42 43 255
-256 -254
-256 -255
254 255 256
-257 42
-257 43
-42 -43 257
-258 253
-258 -256
-253 256 258
-259 -253
-259 256
253 -256 259
-260 -258
-260 -259
258 259 260
-261 -253
-261 -256
253 256 261
-262 -257
-262 -261
257 261 262
-263 -43
-263 44
43 -44 263
-264 43
-264 -44
-43 44 264
-265 -263
-265 -264
263 264 265
-266 43
-266 44
-43 -44 266
-267 262
-267 -265
-262 265 267
-268 -262
-268 265
262 -265 268
-269 -267
-269 -268
267 268 269
-270 -262
-270 -265
262 265 270
-271 -266
-271 -270
266 270 271
-272 -44
-272 45
44 -45 272
-273 44
-273 -45
-44 45 273
-274 -272
-274 -273
272 273 274
-275 44
-275 45
-44 -45 275
-276 271
-276 -274
-271 274 276
-277 -271
-277 274
271 -274 277
-278 -276
-278 -277
276 277 278
-279 -271
-279 -274
271 274 279
-280 -275
-280 -279
275 279 280
-281 -45
-281 46
45 -46 281
-282 45
-282 -46
-45 46 282
-283 -281
-283 -282
281 282 283
-284 45
-284 46
-45 -46 284
-285 280
-285 -283
-280 283 285
-286 -280
-286 283
280 -283 286
-287 -285
-287 -286
285 286 287
-288 -280
-288 -283
280 283 288
-289 -284
-289 -288
284 288 289
-290 -46
-290 47
46 -47 290
-291 46
-291 -47
-46 47 291
-292 -290
-292 -291
290 291 292
-293 46
-293 47
-46 -47 293
-294 289
-294 -292
-289 292 294
-295 -289
-295 292
289 -292 295
-296 -294
-296 -295
294 295 296
-297 -289
-297 -292
289 292 297
-298 -293
-298 -297
293 297 298
-299 -47
-299 48
47 -48 299
-300 47
-300 -48
-47 48 300
-301 -299
-301 -300
299 300 301
-302 47
-302 48
-47 -48 302
-303 298
-303 -301
-298 301 303
-304 -298
-304 301
298 -301 304
-305 -303
-305 -304
303 304 305
-306 -298
-306 -301
298 301 306
-307 -302
-307 -306
302 306 307
-308 -48
-308 49
48 -49 308
-309 48
-309 -49
-48 49 309
-310 -308
-310 -309
308 309 310
-311 48
-311 49
-48 -49 311
-312 307
-312 -310
-307 310 312
-313 -307
-313 310
307 -310 313
-314 -312
-314 -313
312 313 314
-315 -307
-315 -310
307 310 315
-316 -311
-316 -315
311 315 316
-317 -49
-317 50
49 -50 317
-318 49
-318 -50
-49 50 318
-319 -317
-319 -318
317 318 319
-320 49
-320 50
-49 -50 320
-321 316
-321 -319
-316 319 321
-322 -316
-322 319
316 -319 322
-323 -321
-323 -322
321 322 323
-324 -316
-324 -319
316 319 324
-325 -320
-325 -324
320 324 325
-326 -50
-326 51
50 -51 326
-327 50
-327 -51
-50 51 327
-328 -326
-328 -327
326 327 328
-329 50
-329 51
-50 -51 329
-330 325
-330 -328
-325 328 330
-331 -325
-331 328
325 -328 331
-332 -330
-332 -331
330 331 332
-333 -325
-333 -328
325 328 333
-334 -329
-334 -333
329 333 334
-335 -51
-335 52
51 -52 335
-336 51
-336 -52
-51 52 336
-337 -335
-337 -336
335 336 337
-338 51
-338 52
-51 -52 338
-339 334
-339 -337
-334 337 339
-340 -334
-340 337
334 -337 340
-341 -339
-341 -340
339 340 341
-342 -334
-342 -337
334 337 342
-343 -338
-343 -342
338 342 343
-344 -52
-344 53
52 -53 344
-345 52
-345 -53
-52 53 345
-346 -344
-346 -345
344 345 346
-347 52
-347 53
-52 -53 347
-348 343
-348 -346
-343 346 348
-349 -343
-349 346
343 -346 349
-350 -348
-350 -349
348 349 350
-351 -343
-351 -346
343 346 351
-352 -347
-352 -351
347 351 352
-353 23
-353 -89
-23 89 353
-354 -23
-354 25
23 -25 354
-355 -353
-355 -354
353 354 355
-356 23
-356 -98
-23 98 356
-357 -23
-357 26
23 -26 357
-358 -356
-358 -357
356 357 358
-359 23
-359 -107
-23 107 359
-360 -23
-360 27
23 -27 360
-361 -359
-361 -360
359 360 361
-362 23
-362 -116
-23 116 362
-363 -23
-363 28
23 -28 363
-364 -362
-364 -363
362 363 364
-365 23
-365 -125
-23 125 365
-366 -23
-366 29
23 -29 366
-367 -365
-367 -366
365 366 367
-368 23
-368 -134
-23 134 368
-369 -23
-369 30
23 -30 369
-370 -368
-370 -369
368 369 370
-371 23
-371 -143
-23 143 371
-372 -23
-372 31
23 -31 372
-373 -371
-373 -372
371 372 373
-374 23
-374 -152
-23 152 374
-375 -23
-375 32
23 -32 375
-376 -374
-376 -375
374 375 376
-377 23
-377 -161
-23 161 377
-378 -23
-378 33
23 -33 378
-379 -377
-379 -378
377 378 379
-380 23
-380 -170
-23 170 380
-381 -23
-381 34
23 -34 381
-382 -380
-382 -381
380 381 382
-383 23
-383 -179
-23 179 383
-384 -23
-384 35
23 -35 384
-385 -383
-385 -384
383 384 385
-386 23
-386 -188
-23 188 386
-387 -23
-387 36
23 -36 387
-388 -386
-388 -387
386 387 388
-389 23
-389 -197
-23 197 389
-390 -23
-390 37
23 -37 390
-391 -389
-391 -390
389 390 391
-392 23
-392 -206
-23 206 392
-393 -23
-393 38
23 -38 393
-394 -392
-394 -393
392 393 394
-395 23
-395 -215
-23 215 395
-396 -23
-396 39
23 -39 396
-397 -395
-397 -396
395 396 397
-398 23
-398 -224
-23 224 398
-399 -23
-399 40
23 -40 399
-400 -398
-400 -399
398 399 400
-401 23
-401 -233
-23 233 401
-402 -23
-402 41
23 -41 402
-403 -401
-403 -402
401 402 403
-404 23
-404 -242
-23 242 404
-405 -23
-405 42
23 -42 405
-406 -404
-406 -405
404 405 406
-407 23
-407 -251
-23 251 407
-408 -23
-408 43
23 -43 408
-409 -407
-409 -408
407 408 409
-410 23
-410 -260
-23 260 410
-411 -23
-411 44
23 -44 411
-412 -410
-412 -411
410 411 412
-413 23
-413 -269
-23 269 413
-414 -23
-414 45
23 -45 414
-415 -413
-415 -414
413 414 415
-416 23
-416 -278
-23 278 416
-417 -23
-417 46
23 -46 417
-418 -416
-418 -417
416 417 418
-419 23
-419 -287
-23 287 419
-420 -23
-420 47
23 -47 420
-421 -419
-421 -420
419 420 421
-422 23
-422 -296
-23 296 422
-423 -23
-423 48
23 -48 423
-424 -422
-424 -423
422 423 424
-425 23
-425 -305
-23 305 425
-426 -23
-426 49
23 -49 426
-427 -425
-427 -426
425 426 427
-428 23
-428 -314
-23 314 428
-429 -23
-429 50
23 -50 429
-430 -428
-430 -429
428 429 430
-431 23
-431 -323
-23 323 431
-432 -23
-432 51
23 -51 432
-433 -431
-433 -432
431 432 433
-434 23
-434 -332
-23 332 434
-435 -23
-435 52
23 -52 435
-436 -434
-436 -435
434 435 436
-437 23
-437 -341
-23 341 437
-438 -23
-438 53
23 -53 438
-439 -437
-439 -438
437 438 439
-440 23
-440 -350
-23 350 440
-441 1
-441 82
-1 -82 441
-442 -82
-442 83
82 -83 442
-443 -441
-443 -442
441 442 443
-444 2
-444 82
-2 -82 444
-445 -82
-445 -355
82 355 445
-446 -444
-446 -445
444 445 446
-447 3
-447 82
-3 -82 447
-448 -82
-448 -358
82 358 448
-449 -447
-449 -448
447 448 449
-450 4
-450 82
-4 -82 450
-451 -82
-451 -361
82 361 451
-452 -450
-452 -451
450 451 452
-453 5
-453 82
-5 -82 453
-454 -82
-454 -364
82 364 454
-455 -453
-455 -454
453 454 455
-456 6
-456 82
-6 -82 456
-457 -82
-457 -367
82 367 457
-458 -456
-458 -457
456 457 458
-459 7
-459 82
-7 -82 459
-460 -82
-460 -370
82 370 460
-461 -459
-461 -460
459 460 461
-462 8
-462 82
-8 -82 462
-463 -82
-463 -373
82 373 463
-464 -462
-464 -463
462 463 464
-465 9
-465 82
-9 -82 465
-466 -82
-466 -376
82 376 466
-467 -465
-467 -466
465 466 467
-468 10
-468 82
-10 -82 468
-469 -82
-469 -379
82 379 469
-470 -468
-470 -469
468 469 470
-471 11
-471 82
-11 -82 471
-472 -82
-472 -382
82 382 472
-473 -471
-473 -472
471 472 473
-474 12
-474 82
-12 -82 474
-475 -82
-475 -385
82 385 475
-476 -474
-476 -475
474 475 476
-477 13
-477 82
-13 -82 477
-478 -82
-478 -388
82 388 478
-479 -477
-479 -478
477 478 479
-480 14
-480 82
-14 -82 480
-481 -82
-481 -391
82 391 481
-482 -480
-482 -481
480 481 482
-483 15
-483 82
-15 -82 483
-484 -82
-484 -394
82 394 484
-485 -483
-485 -484
483 484 485
-486 16
-486 82
-16 -82 486
-487 -82
-487 -397
82 397 487
-488 -486
-488 -487
486 487 488
-489 17
-489 82
-17 -82 489
-490 -82
-490 -400
82 400 490
-491 -489
-491 -490
489 490 491
-492 18
-492 82
-18 -82 492
-493 -82
-493 -403
82 403 493
-494 -492
-494 -493
492 493 494
-495 19
-495 82
-19 -82 495
-496 -82
-496 -406
82 406 496
-497 -495
-497 -496
495 496 497
-498 20
-498 82
-20 -82 498
-499 -82
-499 -409
82 409 499
-500 -498
-500 -499
498 499 500
-501 21
-501 82
-21 -82 501
-502 -82
-502 -412
82 412 502
-503 -501
-503 -502
501 502 503
-504 22
-504 82
-22 -82 504
-505 -82
-505 -415
82 415 505
-506 -504
-506 -505
504 505 506
-507 -82
-507 -418
82 418 507
-508 -82
-508 -421
82 421 508
-509 -82
-509 -424
82 424 509
-510 -82
-510 -427
82 427 510
-511 -82
-511 -430
82 430 511
-512 -82
-512 -433
82 433 512
-513 -82
-513 -436
82 436 513
-514 -82
-514 -439
82 439 514
-515 -82
-515 440
82 -440 515
-516 -53
-516 352
53 -352 516
-517 23
-517 -516
-23 516 517
517
